112 189 102 24 116
81 198 30 112 131
84 97 126 109 113
161 140 159 62 11
97 167 47 139 197
30 170 67 31 98
58 68 179 197 24
199 199 184 199 60
117 64 73 140 60
144 30 82 176 27
141 98 69 23 18
99 62 139 93 101
120 197 181 17 184
44 90 173 59 113
141 11 143 63 115
13 63 200 155 53
171 199 23 104 57
24 199 49 91 120
62 33 163 197 133
50 166 24 54 74
